job_count = 10 ;
duration = [|15, 25, 19, 9|30, 11, 11, 5|18, 24, 9, 2|25, 8, 10, 5|10, 21, 2, 3|21, 28, 9, 9|7, 16, 2, 9|23, 26, 6, 2|21, 27, 5, 7|14, 12, 10, 3|] ;
machine_count = 4 ;
cost = [|12, 35, 30, 43|17, 31, 44, 74|16, 32, 56, 41|18, 33, 42, 45|14, 22, 36, 46|17, 28, 43, 69|17, 31, 57, 47|11, 30, 57, 66|17, 21, 44, 43|10, 21, 54, 40|] ;
deadline = [21, 21, 21, 21, 21, 21, 21, 21, 21, 21] ;
release = [0, 0, 0, 0, 0, 0, 0, 0, 0, 0] ;
resource = [|3, 3, 3, 3|7, 7, 7, 7|7, 7, 7, 7|2, 2, 2, 2|2, 2, 2, 2|6, 6, 6, 6|5, 5, 5, 5|2, 2, 2, 2|8, 8, 8, 8|3, 3, 3, 3|] ;
capacities = [10, 10, 10, 10] ;
